;10,47,46,1,44,43,6,53,1,45,7,66,2,76,68,31,50,2,75;
;68,19,48,61,46,5,51,2,47,56,9,68,1,56,7,70,66,1,43,1,66,;
;66,2,76,74,17,43,37,70,38,71,3,49,31,46,7,48,43,31;
;43,39,66,10,43,5,70,75,2,43,7,58,11,46,3,66,7;
